40	100	100	100
80	82	100
63	17	100
98	80	100
12	97	100
41	36	100
67	63	100
68	16	100
17	66	100
46	53	100
38	1	100
72	33	100
47	83	100
12	15	100
49	11	100
20	46	100
60	58	100
22	11	100
54	8	100
54	5	100
54	49	100
97	26	100
14	91	100
81	92	100
43	34	100
59	36	100
87	75	100
90	93	100
21	37	100
44	86	100
18	17	100
68	46	100
35	95	100
45	16	100
78	4	100
52	12	100
90	19	100
60	46	100
11	38	100
89	30	100
6	52	100
